; benchmark generated from python API
(set-info :status unknown)
(declare-fun cell_1_2 () Int)
(declare-fun cell_1_6 () Int)
(declare-fun cell_2_1 () Int)
(declare-fun cell_2_6 () Int)
(declare-fun cell_3_8 () Int)
(declare-fun cell_3_9 () Int)
(declare-fun cell_4_4 () Int)
(declare-fun cell_4_9 () Int)
(declare-fun cell_5_3 () Int)
(declare-fun cell_6_8 () Int)
(declare-fun cell_7_5 () Int)
(declare-fun cell_8_7 () Int)
(declare-fun cell_9_1 () Int)
(declare-fun cell_1_1 () Int)
(declare-fun cell_3_1 () Int)
(declare-fun cell_4_1 () Int)
(declare-fun cell_5_1 () Int)
(declare-fun cell_6_1 () Int)
(declare-fun cell_7_1 () Int)
(declare-fun cell_8_1 () Int)
(declare-fun cell_2_2 () Int)
(declare-fun cell_3_2 () Int)
(declare-fun cell_4_2 () Int)
(declare-fun cell_5_2 () Int)
(declare-fun cell_6_2 () Int)
(declare-fun cell_7_2 () Int)
(declare-fun cell_8_2 () Int)
(declare-fun cell_9_2 () Int)
(declare-fun cell_1_3 () Int)
(declare-fun cell_2_3 () Int)
(declare-fun cell_3_3 () Int)
(declare-fun cell_4_3 () Int)
(declare-fun cell_6_3 () Int)
(declare-fun cell_7_3 () Int)
(declare-fun cell_8_3 () Int)
(declare-fun cell_9_3 () Int)
(declare-fun cell_1_4 () Int)
(declare-fun cell_2_4 () Int)
(declare-fun cell_3_4 () Int)
(declare-fun cell_5_4 () Int)
(declare-fun cell_6_4 () Int)
(declare-fun cell_7_4 () Int)
(declare-fun cell_8_4 () Int)
(declare-fun cell_9_4 () Int)
(declare-fun cell_1_5 () Int)
(declare-fun cell_2_5 () Int)
(declare-fun cell_3_5 () Int)
(declare-fun cell_4_5 () Int)
(declare-fun cell_5_5 () Int)
(declare-fun cell_6_5 () Int)
(declare-fun cell_8_5 () Int)
(declare-fun cell_9_5 () Int)
(declare-fun cell_3_6 () Int)
(declare-fun cell_4_6 () Int)
(declare-fun cell_5_6 () Int)
(declare-fun cell_6_6 () Int)
(declare-fun cell_7_6 () Int)
(declare-fun cell_8_6 () Int)
(declare-fun cell_9_6 () Int)
(declare-fun cell_1_7 () Int)
(declare-fun cell_2_7 () Int)
(declare-fun cell_3_7 () Int)
(declare-fun cell_4_7 () Int)
(declare-fun cell_5_7 () Int)
(declare-fun cell_6_7 () Int)
(declare-fun cell_7_7 () Int)
(declare-fun cell_9_7 () Int)
(declare-fun cell_1_8 () Int)
(declare-fun cell_2_8 () Int)
(declare-fun cell_4_8 () Int)
(declare-fun cell_5_8 () Int)
(declare-fun cell_7_8 () Int)
(declare-fun cell_8_8 () Int)
(declare-fun cell_9_8 () Int)
(declare-fun cell_1_9 () Int)
(declare-fun cell_2_9 () Int)
(declare-fun cell_5_9 () Int)
(declare-fun cell_6_9 () Int)
(declare-fun cell_7_9 () Int)
(declare-fun cell_8_9 () Int)
(declare-fun cell_9_9 () Int)
(assert
 (= cell_1_2 1))
(assert
 (= cell_1_6 2))
(assert
 (= cell_2_1 2))
(assert
 (= cell_2_6 1))
(assert
 (= cell_3_8 2))
(assert
 (= cell_3_9 1))
(assert
 (= cell_4_4 1))
(assert
 (= cell_4_9 2))
(assert
 (= cell_5_3 1))
(assert
 (= cell_6_8 1))
(assert
 (= cell_7_5 1))
(assert
 (= cell_8_7 1))
(assert
 (= cell_9_1 1))
(assert
 (let (($x277 (= cell_1_1 9)))
 (let (($x7700 (= cell_1_1 8)))
 (let (($x2344 (= cell_1_1 7)))
 (let (($x3852 (= cell_1_1 6)))
 (let (($x2658 (= cell_1_1 5)))
 (let (($x2493 (= cell_1_1 4)))
 (let (($x738 (= cell_1_1 3)))
 (let (($x1515 (= cell_1_1 2)))
 (let (($x666 (= cell_1_1 1)))
 (or $x666 $x1515 $x738 $x2493 $x2658 $x3852 $x2344 $x7700 $x277)))))))))))
(assert
 (let (($x3631 (= cell_2_1 2)))
 (or (= cell_2_1 1) $x3631 (= cell_2_1 3) (= cell_2_1 4) (= cell_2_1 5) (= cell_2_1 6) (= cell_2_1 7) (= cell_2_1 8) (= cell_2_1 9))))
(assert
 (let (($x915 (= cell_3_1 9)))
 (let (($x659 (= cell_3_1 8)))
 (let (($x540 (= cell_3_1 7)))
 (let (($x2796 (= cell_3_1 6)))
 (let (($x3953 (= cell_3_1 5)))
 (let (($x548 (= cell_3_1 4)))
 (let (($x2445 (= cell_3_1 3)))
 (let (($x449 (= cell_3_1 2)))
 (let (($x995 (= cell_3_1 1)))
 (or $x995 $x449 $x2445 $x548 $x3953 $x2796 $x540 $x659 $x915)))))))))))
(assert
 (let (($x3041 (= cell_4_1 9)))
 (let (($x3340 (= cell_4_1 8)))
 (let (($x2722 (= cell_4_1 7)))
 (let (($x1946 (= cell_4_1 6)))
 (let (($x1135 (= cell_4_1 5)))
 (let (($x2860 (= cell_4_1 4)))
 (let (($x602 (= cell_4_1 3)))
 (let (($x3437 (= cell_4_1 2)))
 (let (($x868 (= cell_4_1 1)))
 (or $x868 $x3437 $x602 $x2860 $x1135 $x1946 $x2722 $x3340 $x3041)))))))))))
(assert
 (let (($x1376 (= cell_5_1 9)))
 (let (($x3889 (= cell_5_1 8)))
 (let (($x713 (= cell_5_1 7)))
 (let (($x3542 (= cell_5_1 6)))
 (let (($x399 (= cell_5_1 5)))
 (let (($x4069 (= cell_5_1 4)))
 (let (($x568 (= cell_5_1 3)))
 (let (($x1451 (= cell_5_1 2)))
 (let (($x941 (= cell_5_1 1)))
 (or $x941 $x1451 $x568 $x4069 $x399 $x3542 $x713 $x3889 $x1376)))))))))))
(assert
 (let (($x2561 (= cell_6_1 9)))
 (let (($x2189 (= cell_6_1 8)))
 (let (($x1722 (= cell_6_1 7)))
 (let (($x2349 (= cell_6_1 6)))
 (let (($x3694 (= cell_6_1 5)))
 (let (($x499 (= cell_6_1 4)))
 (let (($x1982 (= cell_6_1 3)))
 (let (($x1433 (= cell_6_1 2)))
 (let (($x3305 (= cell_6_1 1)))
 (or $x3305 $x1433 $x1982 $x499 $x3694 $x2349 $x1722 $x2189 $x2561)))))))))))
(assert
 (let (($x2318 (= cell_7_1 9)))
 (let (($x7840 (= cell_7_1 8)))
 (let (($x71 (= cell_7_1 7)))
 (let (($x2098 (= cell_7_1 6)))
 (let (($x1499 (= cell_7_1 5)))
 (let (($x2634 (= cell_7_1 4)))
 (let (($x2355 (= cell_7_1 3)))
 (let (($x1120 (= cell_7_1 2)))
 (let (($x3194 (= cell_7_1 1)))
 (or $x3194 $x1120 $x2355 $x2634 $x1499 $x2098 $x71 $x7840 $x2318)))))))))))
(assert
 (let (($x201 (= cell_8_1 9)))
 (let (($x629 (= cell_8_1 8)))
 (let (($x1616 (= cell_8_1 7)))
 (let (($x1520 (= cell_8_1 6)))
 (let (($x922 (= cell_8_1 5)))
 (let (($x3983 (= cell_8_1 4)))
 (let (($x2183 (= cell_8_1 3)))
 (let (($x318 (= cell_8_1 2)))
 (let (($x3088 (= cell_8_1 1)))
 (or $x3088 $x318 $x2183 $x3983 $x922 $x1520 $x1616 $x629 $x201)))))))))))
(assert
 (let (($x741 (= cell_9_1 1)))
 (or $x741 (= cell_9_1 2) (= cell_9_1 3) (= cell_9_1 4) (= cell_9_1 5) (= cell_9_1 6) (= cell_9_1 7) (= cell_9_1 8) (= cell_9_1 9))))
(assert
 (let (($x46 (= cell_1_2 1)))
 (or $x46 (= cell_1_2 2) (= cell_1_2 3) (= cell_1_2 4) (= cell_1_2 5) (= cell_1_2 6) (= cell_1_2 7) (= cell_1_2 8) (= cell_1_2 9))))
(assert
 (let (($x352 (= cell_2_2 9)))
 (let (($x3827 (= cell_2_2 8)))
 (let (($x923 (= cell_2_2 7)))
 (let (($x1832 (= cell_2_2 6)))
 (let (($x683 (= cell_2_2 5)))
 (let (($x102 (= cell_2_2 4)))
 (let (($x1798 (= cell_2_2 3)))
 (let (($x2950 (= cell_2_2 2)))
 (let (($x2419 (= cell_2_2 1)))
 (or $x2419 $x2950 $x1798 $x102 $x683 $x1832 $x923 $x3827 $x352)))))))))))
(assert
 (let (($x3136 (= cell_3_2 9)))
 (let (($x2506 (= cell_3_2 8)))
 (let (($x1532 (= cell_3_2 7)))
 (let (($x948 (= cell_3_2 6)))
 (let (($x26 (= cell_3_2 5)))
 (let (($x441 (= cell_3_2 4)))
 (let (($x2374 (= cell_3_2 3)))
 (let (($x1029 (= cell_3_2 2)))
 (let (($x29 (= cell_3_2 1)))
 (or $x29 $x1029 $x2374 $x441 $x26 $x948 $x1532 $x2506 $x3136)))))))))))
(assert
 (let (($x1062 (= cell_4_2 9)))
 (let (($x1081 (= cell_4_2 8)))
 (let (($x1896 (= cell_4_2 7)))
 (let (($x792 (= cell_4_2 6)))
 (let (($x3044 (= cell_4_2 5)))
 (let (($x3039 (= cell_4_2 4)))
 (let (($x2253 (= cell_4_2 3)))
 (let (($x1730 (= cell_4_2 2)))
 (let (($x48 (= cell_4_2 1)))
 (or $x48 $x1730 $x2253 $x3039 $x3044 $x792 $x1896 $x1081 $x1062)))))))))))
(assert
 (let (($x252 (= cell_5_2 9)))
 (let (($x1556 (= cell_5_2 8)))
 (let (($x968 (= cell_5_2 7)))
 (let (($x1987 (= cell_5_2 6)))
 (let (($x2604 (= cell_5_2 5)))
 (let (($x3814 (= cell_5_2 4)))
 (let (($x491 (= cell_5_2 3)))
 (let (($x2792 (= cell_5_2 2)))
 (let (($x4211 (= cell_5_2 1)))
 (or $x4211 $x2792 $x491 $x3814 $x2604 $x1987 $x968 $x1556 $x252)))))))))))
(assert
 (let (($x1269 (= cell_6_2 9)))
 (let (($x2583 (= cell_6_2 8)))
 (let (($x839 (= cell_6_2 7)))
 (let (($x294 (= cell_6_2 6)))
 (let (($x4053 (= cell_6_2 5)))
 (let (($x809 (= cell_6_2 4)))
 (let (($x3654 (= cell_6_2 3)))
 (let (($x320 (= cell_6_2 2)))
 (let (($x856 (= cell_6_2 1)))
 (or $x856 $x320 $x3654 $x809 $x4053 $x294 $x839 $x2583 $x1269)))))))))))
(assert
 (let (($x3399 (= cell_7_2 9)))
 (let (($x3534 (= cell_7_2 8)))
 (let (($x108 (= cell_7_2 7)))
 (let (($x1214 (= cell_7_2 6)))
 (let (($x2691 (= cell_7_2 5)))
 (let (($x2941 (= cell_7_2 4)))
 (let (($x3207 (= cell_7_2 3)))
 (let (($x644 (= cell_7_2 2)))
 (let (($x1140 (= cell_7_2 1)))
 (or $x1140 $x644 $x3207 $x2941 $x2691 $x1214 $x108 $x3534 $x3399)))))))))))
(assert
 (let (($x293 (= cell_8_2 9)))
 (let (($x236 (= cell_8_2 8)))
 (let (($x1456 (= cell_8_2 7)))
 (let (($x2970 (= cell_8_2 6)))
 (let (($x1057 (= cell_8_2 5)))
 (let (($x3582 (= cell_8_2 4)))
 (let (($x2648 (= cell_8_2 3)))
 (let (($x2874 (= cell_8_2 2)))
 (let (($x2049 (= cell_8_2 1)))
 (or $x2049 $x2874 $x2648 $x3582 $x1057 $x2970 $x1456 $x236 $x293)))))))))))
(assert
 (let (($x3702 (= cell_9_2 2)))
 (let (($x987 (= cell_9_2 1)))
 (or $x987 $x3702 (= cell_9_2 3) (= cell_9_2 4) (= cell_9_2 5) (= cell_9_2 6) (= cell_9_2 7) (= cell_9_2 8) (= cell_9_2 9)))))
(assert
 (let (($x165 (= cell_1_3 9)))
 (let (($x850 (= cell_1_3 8)))
 (let (($x387 (= cell_1_3 7)))
 (let (($x129 (= cell_1_3 6)))
 (let (($x1783 (= cell_1_3 5)))
 (let (($x2324 (= cell_1_3 4)))
 (let (($x1878 (= cell_1_3 3)))
 (let (($x2168 (= cell_1_3 2)))
 (let (($x814 (= cell_1_3 1)))
 (or $x814 $x2168 $x1878 $x2324 $x1783 $x129 $x387 $x850 $x165)))))))))))
(assert
 (let (($x3492 (= cell_2_3 9)))
 (let (($x2048 (= cell_2_3 8)))
 (let (($x2478 (= cell_2_3 7)))
 (let (($x1361 (= cell_2_3 6)))
 (let (($x796 (= cell_2_3 5)))
 (let (($x2083 (= cell_2_3 4)))
 (let (($x1862 (= cell_2_3 3)))
 (let (($x882 (= cell_2_3 2)))
 (let (($x4052 (= cell_2_3 1)))
 (or $x4052 $x882 $x1862 $x2083 $x796 $x1361 $x2478 $x2048 $x3492)))))))))))
(assert
 (let (($x633 (= cell_3_3 9)))
 (let (($x526 (= cell_3_3 8)))
 (let (($x2475 (= cell_3_3 7)))
 (let (($x3706 (= cell_3_3 6)))
 (let (($x416 (= cell_3_3 5)))
 (let (($x3496 (= cell_3_3 4)))
 (let (($x1152 (= cell_3_3 3)))
 (let (($x2019 (= cell_3_3 2)))
 (let (($x2936 (= cell_3_3 1)))
 (or $x2936 $x2019 $x1152 $x3496 $x416 $x3706 $x2475 $x526 $x633)))))))))))
(assert
 (let (($x3405 (= cell_4_3 9)))
 (let (($x96 (= cell_4_3 8)))
 (let (($x153 (= cell_4_3 7)))
 (let (($x2147 (= cell_4_3 6)))
 (let (($x2616 (= cell_4_3 5)))
 (let (($x3507 (= cell_4_3 4)))
 (let (($x7872 (= cell_4_3 3)))
 (let (($x2763 (= cell_4_3 2)))
 (let (($x3685 (= cell_4_3 1)))
 (or $x3685 $x2763 $x7872 $x3507 $x2616 $x2147 $x153 $x96 $x3405)))))))))))
(assert
 (let (($x1209 (= cell_5_3 1)))
 (or $x1209 (= cell_5_3 2) (= cell_5_3 3) (= cell_5_3 4) (= cell_5_3 5) (= cell_5_3 6) (= cell_5_3 7) (= cell_5_3 8) (= cell_5_3 9))))
(assert
 (let (($x3264 (= cell_6_3 9)))
 (let (($x364 (= cell_6_3 8)))
 (let (($x1474 (= cell_6_3 7)))
 (let (($x3515 (= cell_6_3 6)))
 (let (($x1114 (= cell_6_3 5)))
 (let (($x1704 (= cell_6_3 4)))
 (let (($x571 (= cell_6_3 3)))
 (let (($x1724 (= cell_6_3 2)))
 (let (($x2442 (= cell_6_3 1)))
 (or $x2442 $x1724 $x571 $x1704 $x1114 $x3515 $x1474 $x364 $x3264)))))))))))
(assert
 (let (($x1733 (= cell_7_3 9)))
 (let (($x4061 (= cell_7_3 8)))
 (let (($x93 (= cell_7_3 7)))
 (let (($x2385 (= cell_7_3 6)))
 (let (($x181 (= cell_7_3 5)))
 (let (($x3843 (= cell_7_3 4)))
 (let (($x1595 (= cell_7_3 3)))
 (let (($x2065 (= cell_7_3 2)))
 (let (($x3450 (= cell_7_3 1)))
 (or $x3450 $x2065 $x1595 $x3843 $x181 $x2385 $x93 $x4061 $x1733)))))))))))
(assert
 (let (($x2170 (= cell_8_3 9)))
 (let (($x3454 (= cell_8_3 8)))
 (let (($x446 (= cell_8_3 7)))
 (let (($x1652 (= cell_8_3 6)))
 (let (($x1436 (= cell_8_3 5)))
 (let (($x6 (= cell_8_3 4)))
 (let (($x3096 (= cell_8_3 3)))
 (let (($x3376 (= cell_8_3 2)))
 (let (($x41 (= cell_8_3 1)))
 (or $x41 $x3376 $x3096 $x6 $x1436 $x1652 $x446 $x3454 $x2170)))))))))))
(assert
 (let (($x2331 (= cell_9_3 1)))
 (or $x2331 (= cell_9_3 2) (= cell_9_3 3) (= cell_9_3 4) (= cell_9_3 5) (= cell_9_3 6) (= cell_9_3 7) (= cell_9_3 8) (= cell_9_3 9))))
(assert
 (let (($x2545 (= cell_1_4 9)))
 (let (($x1123 (= cell_1_4 8)))
 (let (($x3386 (= cell_1_4 7)))
 (let (($x1721 (= cell_1_4 6)))
 (let (($x1427 (= cell_1_4 5)))
 (let (($x37 (= cell_1_4 4)))
 (let (($x612 (= cell_1_4 3)))
 (let (($x3589 (= cell_1_4 2)))
 (let (($x2601 (= cell_1_4 1)))
 (or $x2601 $x3589 $x612 $x37 $x1427 $x1721 $x3386 $x1123 $x2545)))))))))))
(assert
 (let (($x2244 (= cell_2_4 9)))
 (let (($x1463 (= cell_2_4 8)))
 (let (($x2677 (= cell_2_4 7)))
 (let (($x2844 (= cell_2_4 6)))
 (let (($x804 (= cell_2_4 5)))
 (let (($x2580 (= cell_2_4 4)))
 (let (($x3012 (= cell_2_4 3)))
 (let (($x1327 (= cell_2_4 2)))
 (let (($x2163 (= cell_2_4 1)))
 (or $x2163 $x1327 $x3012 $x2580 $x804 $x2844 $x2677 $x1463 $x2244)))))))))))
(assert
 (let (($x3308 (= cell_3_4 9)))
 (let (($x1565 (= cell_3_4 8)))
 (let (($x1337 (= cell_3_4 7)))
 (let (($x434 (= cell_3_4 6)))
 (let (($x3109 (= cell_3_4 5)))
 (let (($x1293 (= cell_3_4 4)))
 (let (($x2096 (= cell_3_4 3)))
 (let (($x2054 (= cell_3_4 2)))
 (let (($x1502 (= cell_3_4 1)))
 (or $x1502 $x2054 $x2096 $x1293 $x3109 $x434 $x1337 $x1565 $x3308)))))))))))
(assert
 (let (($x1201 (= cell_4_4 1)))
 (or $x1201 (= cell_4_4 2) (= cell_4_4 3) (= cell_4_4 4) (= cell_4_4 5) (= cell_4_4 6) (= cell_4_4 7) (= cell_4_4 8) (= cell_4_4 9))))
(assert
 (let (($x1454 (= cell_5_4 9)))
 (let (($x3521 (= cell_5_4 8)))
 (let (($x828 (= cell_5_4 7)))
 (let (($x3724 (= cell_5_4 6)))
 (let (($x605 (= cell_5_4 5)))
 (let (($x534 (= cell_5_4 4)))
 (let (($x750 (= cell_5_4 3)))
 (let (($x2221 (= cell_5_4 2)))
 (let (($x2267 (= cell_5_4 1)))
 (or $x2267 $x2221 $x750 $x534 $x605 $x3724 $x828 $x3521 $x1454)))))))))))
(assert
 (let (($x470 (= cell_6_4 9)))
 (let (($x815 (= cell_6_4 8)))
 (let (($x241 (= cell_6_4 7)))
 (let (($x1717 (= cell_6_4 6)))
 (let (($x1876 (= cell_6_4 5)))
 (let (($x1268 (= cell_6_4 4)))
 (let (($x2376 (= cell_6_4 3)))
 (let (($x822 (= cell_6_4 2)))
 (let (($x3916 (= cell_6_4 1)))
 (or $x3916 $x822 $x2376 $x1268 $x1876 $x1717 $x241 $x815 $x470)))))))))))
(assert
 (let (($x2711 (= cell_7_4 9)))
 (let (($x2707 (= cell_7_4 8)))
 (let (($x2857 (= cell_7_4 7)))
 (let (($x2489 (= cell_7_4 6)))
 (let (($x2454 (= cell_7_4 5)))
 (let (($x729 (= cell_7_4 4)))
 (let (($x1071 (= cell_7_4 3)))
 (let (($x2431 (= cell_7_4 2)))
 (let (($x747 (= cell_7_4 1)))
 (or $x747 $x2431 $x1071 $x729 $x2454 $x2489 $x2857 $x2707 $x2711)))))))))))
(assert
 (let (($x3887 (= cell_8_4 9)))
 (let (($x2369 (= cell_8_4 8)))
 (let (($x1858 (= cell_8_4 7)))
 (let (($x1774 (= cell_8_4 6)))
 (let (($x3508 (= cell_8_4 5)))
 (let (($x2146 (= cell_8_4 4)))
 (let (($x76 (= cell_8_4 3)))
 (let (($x1413 (= cell_8_4 2)))
 (let (($x3965 (= cell_8_4 1)))
 (or $x3965 $x1413 $x76 $x2146 $x3508 $x1774 $x1858 $x2369 $x3887)))))))))))
(assert
 (let (($x2776 (= cell_9_4 1)))
 (or $x2776 (= cell_9_4 2) (= cell_9_4 3) (= cell_9_4 4) (= cell_9_4 5) (= cell_9_4 6) (= cell_9_4 7) (= cell_9_4 8) (= cell_9_4 9))))
(assert
 (let (($x3988 (= cell_1_5 9)))
 (let (($x1378 (= cell_1_5 8)))
 (let (($x582 (= cell_1_5 7)))
 (let (($x1191 (= cell_1_5 6)))
 (let (($x2929 (= cell_1_5 5)))
 (let (($x951 (= cell_1_5 4)))
 (let (($x1791 (= cell_1_5 3)))
 (let (($x2960 (= cell_1_5 2)))
 (let (($x2015 (= cell_1_5 1)))
 (or $x2015 $x2960 $x1791 $x951 $x2929 $x1191 $x582 $x1378 $x3988)))))))))))
(assert
 (let (($x1575 (= cell_2_5 9)))
 (let (($x2778 (= cell_2_5 8)))
 (let (($x2919 (= cell_2_5 7)))
 (let (($x2587 (= cell_2_5 6)))
 (let (($x3358 (= cell_2_5 5)))
 (let (($x1233 (= cell_2_5 4)))
 (let (($x3224 (= cell_2_5 3)))
 (let (($x3618 (= cell_2_5 2)))
 (let (($x2573 (= cell_2_5 1)))
 (or $x2573 $x3618 $x3224 $x1233 $x3358 $x2587 $x2919 $x2778 $x1575)))))))))))
(assert
 (let (($x1003 (= cell_3_5 9)))
 (let (($x2257 (= cell_3_5 8)))
 (let (($x2032 (= cell_3_5 7)))
 (let (($x606 (= cell_3_5 6)))
 (let (($x1604 (= cell_3_5 5)))
 (let (($x706 (= cell_3_5 4)))
 (let (($x884 (= cell_3_5 3)))
 (let (($x1462 (= cell_3_5 2)))
 (let (($x2981 (= cell_3_5 1)))
 (or $x2981 $x1462 $x884 $x706 $x1604 $x606 $x2032 $x2257 $x1003)))))))))))
(assert
 (let (($x4064 (= cell_4_5 9)))
 (let (($x3858 (= cell_4_5 8)))
 (let (($x549 (= cell_4_5 7)))
 (let (($x2710 (= cell_4_5 6)))
 (let (($x2053 (= cell_4_5 5)))
 (let (($x51 (= cell_4_5 4)))
 (let (($x2533 (= cell_4_5 3)))
 (let (($x936 (= cell_4_5 2)))
 (let (($x1181 (= cell_4_5 1)))
 (or $x1181 $x936 $x2533 $x51 $x2053 $x2710 $x549 $x3858 $x4064)))))))))))
(assert
 (let (($x1893 (= cell_5_5 9)))
 (let (($x3667 (= cell_5_5 8)))
 (let (($x1880 (= cell_5_5 7)))
 (let (($x3854 (= cell_5_5 6)))
 (let (($x837 (= cell_5_5 5)))
 (let (($x3750 (= cell_5_5 4)))
 (let (($x2838 (= cell_5_5 3)))
 (let (($x3711 (= cell_5_5 2)))
 (let (($x3242 (= cell_5_5 1)))
 (or $x3242 $x3711 $x2838 $x3750 $x837 $x3854 $x1880 $x3667 $x1893)))))))))))
(assert
 (let (($x2003 (= cell_6_5 9)))
 (let (($x871 (= cell_6_5 8)))
 (let (($x2381 (= cell_6_5 7)))
 (let (($x142 (= cell_6_5 6)))
 (let (($x2490 (= cell_6_5 5)))
 (let (($x1112 (= cell_6_5 4)))
 (let (($x1778 (= cell_6_5 3)))
 (let (($x3419 (= cell_6_5 2)))
 (let (($x1765 (= cell_6_5 1)))
 (or $x1765 $x3419 $x1778 $x1112 $x2490 $x142 $x2381 $x871 $x2003)))))))))))
(assert
 (let (($x2738 (= cell_7_5 1)))
 (or $x2738 (= cell_7_5 2) (= cell_7_5 3) (= cell_7_5 4) (= cell_7_5 5) (= cell_7_5 6) (= cell_7_5 7) (= cell_7_5 8) (= cell_7_5 9))))
(assert
 (let (($x4224 (= cell_8_5 9)))
 (let (($x2416 (= cell_8_5 8)))
 (let (($x2089 (= cell_8_5 7)))
 (let (($x2808 (= cell_8_5 6)))
 (let (($x2522 (= cell_8_5 5)))
 (let (($x1511 (= cell_8_5 4)))
 (let (($x484 (= cell_8_5 3)))
 (let (($x2057 (= cell_8_5 2)))
 (let (($x2459 (= cell_8_5 1)))
 (or $x2459 $x2057 $x484 $x1511 $x2522 $x2808 $x2089 $x2416 $x4224)))))))))))
(assert
 (let (($x1311 (= cell_9_5 1)))
 (or $x1311 (= cell_9_5 2) (= cell_9_5 3) (= cell_9_5 4) (= cell_9_5 5) (= cell_9_5 6) (= cell_9_5 7) (= cell_9_5 8) (= cell_9_5 9))))
(assert
 (let (($x1537 (= cell_1_6 2)))
 (or (= cell_1_6 1) $x1537 (= cell_1_6 3) (= cell_1_6 4) (= cell_1_6 5) (= cell_1_6 6) (= cell_1_6 7) (= cell_1_6 8) (= cell_1_6 9))))
(assert
 (let (($x4125 (= cell_2_6 1)))
 (or $x4125 (= cell_2_6 2) (= cell_2_6 3) (= cell_2_6 4) (= cell_2_6 5) (= cell_2_6 6) (= cell_2_6 7) (= cell_2_6 8) (= cell_2_6 9))))
(assert
 (let (($x3679 (= cell_3_6 9)))
 (let (($x1045 (= cell_3_6 8)))
 (let (($x2220 (= cell_3_6 7)))
 (let (($x223 (= cell_3_6 6)))
 (let (($x494 (= cell_3_6 5)))
 (let (($x2323 (= cell_3_6 4)))
 (let (($x704 (= cell_3_6 3)))
 (let (($x1629 (= cell_3_6 2)))
 (let (($x7986 (= cell_3_6 1)))
 (or $x7986 $x1629 $x704 $x2323 $x494 $x223 $x2220 $x1045 $x3679)))))))))))
(assert
 (let (($x2821 (= cell_4_6 9)))
 (let (($x2559 (= cell_4_6 8)))
 (let (($x2684 (= cell_4_6 7)))
 (let (($x2279 (= cell_4_6 6)))
 (let (($x99 (= cell_4_6 5)))
 (let (($x3557 (= cell_4_6 4)))
 (let (($x2612 (= cell_4_6 3)))
 (let (($x2867 (= cell_4_6 2)))
 (let (($x1667 (= cell_4_6 1)))
 (or $x1667 $x2867 $x2612 $x3557 $x99 $x2279 $x2684 $x2559 $x2821)))))))))))
(assert
 (let (($x2041 (= cell_5_6 2)))
 (let (($x1757 (= cell_5_6 1)))
 (or $x1757 $x2041 (= cell_5_6 3) (= cell_5_6 4) (= cell_5_6 5) (= cell_5_6 6) (= cell_5_6 7) (= cell_5_6 8) (= cell_5_6 9)))))
(assert
 (let (($x3341 (= cell_6_6 9)))
 (let (($x91 (= cell_6_6 8)))
 (let (($x2814 (= cell_6_6 7)))
 (let (($x3762 (= cell_6_6 6)))
 (let (($x3643 (= cell_6_6 5)))
 (let (($x3835 (= cell_6_6 4)))
 (let (($x1581 (= cell_6_6 3)))
 (let (($x3134 (= cell_6_6 2)))
 (let (($x2079 (= cell_6_6 1)))
 (or $x2079 $x3134 $x1581 $x3835 $x3643 $x3762 $x2814 $x91 $x3341)))))))))))
(assert
 (let (($x2100 (= cell_7_6 9)))
 (let (($x1058 (= cell_7_6 8)))
 (let (($x3014 (= cell_7_6 7)))
 (let (($x3562 (= cell_7_6 6)))
 (let (($x1882 (= cell_7_6 5)))
 (let (($x3434 (= cell_7_6 4)))
 (let (($x2094 (= cell_7_6 3)))
 (let (($x2131 (= cell_7_6 2)))
 (let (($x386 (= cell_7_6 1)))
 (or $x386 $x2131 $x2094 $x3434 $x1882 $x3562 $x3014 $x1058 $x2100)))))))))))
(assert
 (let (($x3832 (= cell_8_6 9)))
 (let (($x818 (= cell_8_6 8)))
 (let (($x3342 (= cell_8_6 7)))
 (let (($x2271 (= cell_8_6 6)))
 (let (($x2485 (= cell_8_6 5)))
 (let (($x1597 (= cell_8_6 4)))
 (let (($x478 (= cell_8_6 3)))
 (let (($x972 (= cell_8_6 2)))
 (let (($x531 (= cell_8_6 1)))
 (or $x531 $x972 $x478 $x1597 $x2485 $x2271 $x3342 $x818 $x3832)))))))))))
(assert
 (let (($x7762 (= cell_9_6 2)))
 (let (($x1366 (= cell_9_6 1)))
 (or $x1366 $x7762 (= cell_9_6 3) (= cell_9_6 4) (= cell_9_6 5) (= cell_9_6 6) (= cell_9_6 7) (= cell_9_6 8) (= cell_9_6 9)))))
(assert
 (let (($x1392 (= cell_1_7 9)))
 (let (($x2784 (= cell_1_7 8)))
 (let (($x600 (= cell_1_7 7)))
 (let (($x3047 (= cell_1_7 6)))
 (let (($x7662 (= cell_1_7 5)))
 (let (($x897 (= cell_1_7 4)))
 (let (($x2494 (= cell_1_7 3)))
 (let (($x768 (= cell_1_7 2)))
 (let (($x2427 (= cell_1_7 1)))
 (or $x2427 $x768 $x2494 $x897 $x7662 $x3047 $x600 $x2784 $x1392)))))))))))
(assert
 (let (($x2263 (= cell_2_7 9)))
 (let (($x152 (= cell_2_7 8)))
 (let (($x2623 (= cell_2_7 7)))
 (let (($x4043 (= cell_2_7 6)))
 (let (($x14 (= cell_2_7 5)))
 (let (($x1598 (= cell_2_7 4)))
 (let (($x7853 (= cell_2_7 3)))
 (let (($x1993 (= cell_2_7 2)))
 (let (($x1173 (= cell_2_7 1)))
 (or $x1173 $x1993 $x7853 $x1598 $x14 $x4043 $x2623 $x152 $x2263)))))))))))
(assert
 (let (($x3974 (= cell_3_7 9)))
 (let (($x424 (= cell_3_7 8)))
 (let (($x2626 (= cell_3_7 7)))
 (let (($x1294 (= cell_3_7 6)))
 (let (($x2208 (= cell_3_7 5)))
 (let (($x2853 (= cell_3_7 4)))
 (let (($x1741 (= cell_3_7 3)))
 (let (($x7885 (= cell_3_7 2)))
 (let (($x7668 (= cell_3_7 1)))
 (or $x7668 $x7885 $x1741 $x2853 $x2208 $x1294 $x2626 $x424 $x3974)))))))))))
(assert
 (let (($x3604 (= cell_4_7 9)))
 (let (($x3436 (= cell_4_7 8)))
 (let (($x2345 (= cell_4_7 7)))
 (let (($x1089 (= cell_4_7 6)))
 (let (($x1605 (= cell_4_7 5)))
 (let (($x783 (= cell_4_7 4)))
 (let (($x2264 (= cell_4_7 3)))
 (let (($x1889 (= cell_4_7 2)))
 (let (($x826 (= cell_4_7 1)))
 (or $x826 $x1889 $x2264 $x783 $x1605 $x1089 $x2345 $x3436 $x3604)))))))))))
(assert
 (let (($x77 (= cell_5_7 9)))
 (let (($x1904 (= cell_5_7 8)))
 (let (($x1938 (= cell_5_7 7)))
 (let (($x2110 (= cell_5_7 6)))
 (let (($x305 (= cell_5_7 5)))
 (let (($x166 (= cell_5_7 4)))
 (let (($x3855 (= cell_5_7 3)))
 (let (($x50 (= cell_5_7 2)))
 (let (($x1225 (= cell_5_7 1)))
 (or $x1225 $x50 $x3855 $x166 $x305 $x2110 $x1938 $x1904 $x77)))))))))))
(assert
 (let (($x4076 (= cell_6_7 9)))
 (let (($x19 (= cell_6_7 8)))
 (let (($x2334 (= cell_6_7 7)))
 (let (($x1978 (= cell_6_7 6)))
 (let (($x2352 (= cell_6_7 5)))
 (let (($x3932 (= cell_6_7 4)))
 (let (($x420 (= cell_6_7 3)))
 (let (($x2026 (= cell_6_7 2)))
 (let (($x2303 (= cell_6_7 1)))
 (or $x2303 $x2026 $x420 $x3932 $x2352 $x1978 $x2334 $x19 $x4076)))))))))))
(assert
 (let (($x1577 (= cell_7_7 9)))
 (let (($x7839 (= cell_7_7 8)))
 (let (($x266 (= cell_7_7 7)))
 (let (($x1365 (= cell_7_7 6)))
 (let (($x1076 (= cell_7_7 5)))
 (let (($x429 (= cell_7_7 4)))
 (let (($x653 (= cell_7_7 3)))
 (let (($x883 (= cell_7_7 2)))
 (let (($x2727 (= cell_7_7 1)))
 (or $x2727 $x883 $x653 $x429 $x1076 $x1365 $x266 $x7839 $x1577)))))))))))
(assert
 (let (($x1790 (= cell_8_7 1)))
 (or $x1790 (= cell_8_7 2) (= cell_8_7 3) (= cell_8_7 4) (= cell_8_7 5) (= cell_8_7 6) (= cell_8_7 7) (= cell_8_7 8) (= cell_8_7 9))))
(assert
 (let (($x2595 (= cell_9_7 1)))
 (or $x2595 (= cell_9_7 2) (= cell_9_7 3) (= cell_9_7 4) (= cell_9_7 5) (= cell_9_7 6) (= cell_9_7 7) (= cell_9_7 8) (= cell_9_7 9))))
(assert
 (let (($x3472 (= cell_1_8 9)))
 (let (($x763 (= cell_1_8 8)))
 (let (($x3647 (= cell_1_8 7)))
 (let (($x1902 (= cell_1_8 6)))
 (let (($x2872 (= cell_1_8 5)))
 (let (($x74 (= cell_1_8 4)))
 (let (($x1715 (= cell_1_8 3)))
 (let (($x1393 (= cell_1_8 2)))
 (let (($x489 (= cell_1_8 1)))
 (or $x489 $x1393 $x1715 $x74 $x2872 $x1902 $x3647 $x763 $x3472)))))))))))
(assert
 (let (($x240 (= cell_2_8 9)))
 (let (($x2678 (= cell_2_8 8)))
 (let (($x888 (= cell_2_8 7)))
 (let (($x787 (= cell_2_8 6)))
 (let (($x1973 (= cell_2_8 5)))
 (let (($x2306 (= cell_2_8 4)))
 (let (($x2466 (= cell_2_8 3)))
 (let (($x3614 (= cell_2_8 2)))
 (let (($x4093 (= cell_2_8 1)))
 (or $x4093 $x3614 $x2466 $x2306 $x1973 $x787 $x888 $x2678 $x240)))))))))))
(assert
 (let (($x2785 (= cell_3_8 2)))
 (or (= cell_3_8 1) $x2785 (= cell_3_8 3) (= cell_3_8 4) (= cell_3_8 5) (= cell_3_8 6) (= cell_3_8 7) (= cell_3_8 8) (= cell_3_8 9))))
(assert
 (let (($x1985 (= cell_4_8 9)))
 (let (($x3229 (= cell_4_8 8)))
 (let (($x2720 (= cell_4_8 7)))
 (let (($x1289 (= cell_4_8 6)))
 (let (($x1461 (= cell_4_8 5)))
 (let (($x7795 (= cell_4_8 4)))
 (let (($x276 (= cell_4_8 3)))
 (let (($x885 (= cell_4_8 2)))
 (let (($x1443 (= cell_4_8 1)))
 (or $x1443 $x885 $x276 $x7795 $x1461 $x1289 $x2720 $x3229 $x1985)))))))))))
(assert
 (let (($x1006 (= cell_5_8 9)))
 (let (($x2377 (= cell_5_8 8)))
 (let (($x311 (= cell_5_8 7)))
 (let (($x1775 (= cell_5_8 6)))
 (let (($x1338 (= cell_5_8 5)))
 (let (($x2141 (= cell_5_8 4)))
 (let (($x1052 (= cell_5_8 3)))
 (let (($x1760 (= cell_5_8 2)))
 (let (($x2666 (= cell_5_8 1)))
 (or $x2666 $x1760 $x1052 $x2141 $x1338 $x1775 $x311 $x2377 $x1006)))))))))))
(assert
 (let (($x1952 (= cell_6_8 1)))
 (or $x1952 (= cell_6_8 2) (= cell_6_8 3) (= cell_6_8 4) (= cell_6_8 5) (= cell_6_8 6) (= cell_6_8 7) (= cell_6_8 8) (= cell_6_8 9))))
(assert
 (let (($x2476 (= cell_7_8 9)))
 (let (($x2685 (= cell_7_8 8)))
 (let (($x848 (= cell_7_8 7)))
 (let (($x928 (= cell_7_8 6)))
 (let (($x438 (= cell_7_8 5)))
 (let (($x1756 (= cell_7_8 4)))
 (let (($x2210 (= cell_7_8 3)))
 (let (($x1860 (= cell_7_8 2)))
 (let (($x1351 (= cell_7_8 1)))
 (or $x1351 $x1860 $x2210 $x1756 $x438 $x928 $x848 $x2685 $x2476)))))))))))
(assert
 (let (($x1111 (= cell_8_8 2)))
 (let (($x2801 (= cell_8_8 1)))
 (or $x2801 $x1111 (= cell_8_8 3) (= cell_8_8 4) (= cell_8_8 5) (= cell_8_8 6) (= cell_8_8 7) (= cell_8_8 8) (= cell_8_8 9)))))
(assert
 (let (($x2607 (= cell_9_8 2)))
 (let (($x961 (= cell_9_8 1)))
 (or $x961 $x2607 (= cell_9_8 3) (= cell_9_8 4) (= cell_9_8 5) (= cell_9_8 6) (= cell_9_8 7) (= cell_9_8 8) (= cell_9_8 9)))))
(assert
 (let (($x145 (= cell_1_9 9)))
 (let (($x1064 (= cell_1_9 8)))
 (let (($x2420 (= cell_1_9 7)))
 (let (($x2351 (= cell_1_9 6)))
 (let (($x2805 (= cell_1_9 5)))
 (let (($x1919 (= cell_1_9 4)))
 (let (($x296 (= cell_1_9 3)))
 (let (($x1469 (= cell_1_9 2)))
 (let (($x402 (= cell_1_9 1)))
 (or $x402 $x1469 $x296 $x1919 $x2805 $x2351 $x2420 $x1064 $x145)))))))))))
(assert
 (let (($x1161 (= cell_2_9 9)))
 (let (($x7666 (= cell_2_9 8)))
 (let (($x2865 (= cell_2_9 7)))
 (let (($x2748 (= cell_2_9 6)))
 (let (($x7750 (= cell_2_9 5)))
 (let (($x1758 (= cell_2_9 4)))
 (let (($x2055 (= cell_2_9 3)))
 (let (($x1426 (= cell_2_9 2)))
 (let (($x2458 (= cell_2_9 1)))
 (or $x2458 $x1426 $x2055 $x1758 $x7750 $x2748 $x2865 $x7666 $x1161)))))))))))
(assert
 (let (($x2628 (= cell_3_9 1)))
 (or $x2628 (= cell_3_9 2) (= cell_3_9 3) (= cell_3_9 4) (= cell_3_9 5) (= cell_3_9 6) (= cell_3_9 7) (= cell_3_9 8) (= cell_3_9 9))))
(assert
 (let (($x1285 (= cell_4_9 2)))
 (or (= cell_4_9 1) $x1285 (= cell_4_9 3) (= cell_4_9 4) (= cell_4_9 5) (= cell_4_9 6) (= cell_4_9 7) (= cell_4_9 8) (= cell_4_9 9))))
(assert
 (let (($x2500 (= cell_5_9 9)))
 (let (($x667 (= cell_5_9 8)))
 (let (($x1291 (= cell_5_9 7)))
 (let (($x2907 (= cell_5_9 6)))
 (let (($x4228 (= cell_5_9 5)))
 (let (($x1118 (= cell_5_9 4)))
 (let (($x3175 (= cell_5_9 3)))
 (let (($x1037 (= cell_5_9 2)))
 (let (($x798 (= cell_5_9 1)))
 (or $x798 $x1037 $x3175 $x1118 $x4228 $x2907 $x1291 $x667 $x2500)))))))))))
(assert
 (let (($x1319 (= cell_6_9 2)))
 (let (($x1529 (= cell_6_9 1)))
 (or $x1529 $x1319 (= cell_6_9 3) (= cell_6_9 4) (= cell_6_9 5) (= cell_6_9 6) (= cell_6_9 7) (= cell_6_9 8) (= cell_6_9 9)))))
(assert
 (let (($x1070 (= cell_7_9 9)))
 (let (($x2540 (= cell_7_9 8)))
 (let (($x1686 (= cell_7_9 7)))
 (let (($x4029 (= cell_7_9 6)))
 (let (($x1752 (= cell_7_9 5)))
 (let (($x1159 (= cell_7_9 4)))
 (let (($x3981 (= cell_7_9 3)))
 (let (($x2283 (= cell_7_9 2)))
 (let (($x3255 (= cell_7_9 1)))
 (or $x3255 $x2283 $x3981 $x1159 $x1752 $x4029 $x1686 $x2540 $x1070)))))))))))
(assert
 (let (($x1031 (= cell_8_9 2)))
 (let (($x677 (= cell_8_9 1)))
 (or $x677 $x1031 (= cell_8_9 3) (= cell_8_9 4) (= cell_8_9 5) (= cell_8_9 6) (= cell_8_9 7) (= cell_8_9 8) (= cell_8_9 9)))))
(assert
 (let (($x875 (= cell_9_9 2)))
 (let (($x3064 (= cell_9_9 1)))
 (or $x3064 $x875 (= cell_9_9 3) (= cell_9_9 4) (= cell_9_9 5) (= cell_9_9 6) (= cell_9_9 7) (= cell_9_9 8) (= cell_9_9 9)))))
(assert
 (and (distinct cell_1_1 cell_1_2 cell_1_3 cell_1_4 cell_1_5 cell_1_6 cell_1_7 cell_1_8 cell_1_9) true))
(assert
 (and (distinct cell_2_1 cell_2_2 cell_2_3 cell_2_4 cell_2_5 cell_2_6 cell_2_7 cell_2_8 cell_2_9) true))
(assert
 (and (distinct cell_3_1 cell_3_2 cell_3_3 cell_3_4 cell_3_5 cell_3_6 cell_3_7 cell_3_8 cell_3_9) true))
(assert
 (and (distinct cell_4_1 cell_4_2 cell_4_3 cell_4_4 cell_4_5 cell_4_6 cell_4_7 cell_4_8 cell_4_9) true))
(assert
 (and (distinct cell_5_1 cell_5_2 cell_5_3 cell_5_4 cell_5_5 cell_5_6 cell_5_7 cell_5_8 cell_5_9) true))
(assert
 (and (distinct cell_6_1 cell_6_2 cell_6_3 cell_6_4 cell_6_5 cell_6_6 cell_6_7 cell_6_8 cell_6_9) true))
(assert
 (and (distinct cell_7_1 cell_7_2 cell_7_3 cell_7_4 cell_7_5 cell_7_6 cell_7_7 cell_7_8 cell_7_9) true))
(assert
 (and (distinct cell_8_1 cell_8_2 cell_8_3 cell_8_4 cell_8_5 cell_8_6 cell_8_7 cell_8_8 cell_8_9) true))
(assert
 (and (distinct cell_9_1 cell_9_2 cell_9_3 cell_9_4 cell_9_5 cell_9_6 cell_9_7 cell_9_8 cell_9_9) true))
(assert
 (and (distinct cell_1_1 cell_2_1 cell_3_1 cell_4_1 cell_5_1 cell_6_1 cell_7_1 cell_8_1 cell_9_1) true))
(assert
 (and (distinct cell_1_2 cell_2_2 cell_3_2 cell_4_2 cell_5_2 cell_6_2 cell_7_2 cell_8_2 cell_9_2) true))
(assert
 (and (distinct cell_1_3 cell_2_3 cell_3_3 cell_4_3 cell_5_3 cell_6_3 cell_7_3 cell_8_3 cell_9_3) true))
(assert
 (and (distinct cell_1_4 cell_2_4 cell_3_4 cell_4_4 cell_5_4 cell_6_4 cell_7_4 cell_8_4 cell_9_4) true))
(assert
 (and (distinct cell_1_5 cell_2_5 cell_3_5 cell_4_5 cell_5_5 cell_6_5 cell_7_5 cell_8_5 cell_9_5) true))
(assert
 (and (distinct cell_1_6 cell_2_6 cell_3_6 cell_4_6 cell_5_6 cell_6_6 cell_7_6 cell_8_6 cell_9_6) true))
(assert
 (and (distinct cell_1_7 cell_2_7 cell_3_7 cell_4_7 cell_5_7 cell_6_7 cell_7_7 cell_8_7 cell_9_7) true))
(assert
 (and (distinct cell_1_8 cell_2_8 cell_3_8 cell_4_8 cell_5_8 cell_6_8 cell_7_8 cell_8_8 cell_9_8) true))
(assert
 (and (distinct cell_1_9 cell_2_9 cell_3_9 cell_4_9 cell_5_9 cell_6_9 cell_7_9 cell_8_9 cell_9_9) true))
(assert
 (and (distinct cell_1_1 cell_1_2 cell_1_3 cell_2_1 cell_2_2 cell_2_3 cell_3_1 cell_3_2 cell_3_3) true))
(assert
 (and (distinct cell_1_4 cell_1_5 cell_1_6 cell_2_4 cell_2_5 cell_2_6 cell_3_4 cell_3_5 cell_3_6) true))
(assert
 (and (distinct cell_1_7 cell_1_8 cell_1_9 cell_2_7 cell_2_8 cell_2_9 cell_3_7 cell_3_8 cell_3_9) true))
(assert
 (and (distinct cell_4_1 cell_4_2 cell_4_3 cell_5_1 cell_5_2 cell_5_3 cell_6_1 cell_6_2 cell_6_3) true))
(assert
 (and (distinct cell_4_4 cell_4_5 cell_4_6 cell_5_4 cell_5_5 cell_5_6 cell_6_4 cell_6_5 cell_6_6) true))
(assert
 (and (distinct cell_4_7 cell_4_8 cell_4_9 cell_5_7 cell_5_8 cell_5_9 cell_6_7 cell_6_8 cell_6_9) true))
(assert
 (and (distinct cell_7_1 cell_7_2 cell_7_3 cell_8_1 cell_8_2 cell_8_3 cell_9_1 cell_9_2 cell_9_3) true))
(assert
 (and (distinct cell_7_4 cell_7_5 cell_7_6 cell_8_4 cell_8_5 cell_8_6 cell_9_4 cell_9_5 cell_9_6) true))
(assert
 (and (distinct cell_7_7 cell_7_8 cell_7_9 cell_8_7 cell_8_8 cell_8_9 cell_9_7 cell_9_8 cell_9_9) true))
(assert
 (let (($x7786 (and (distinct cell_5_9 cell_6_8 cell_7_7 cell_8_6) true)))
 (let (($x2425 (and (distinct cell_2_9 cell_3_8 cell_4_7 cell_5_6 cell_6_5 cell_7_4 cell_8_3 cell_9_2) true)))
 (let (($x407 (and (distinct cell_1_8 cell_2_7 cell_3_6 cell_4_5 cell_5_4 cell_6_3 cell_7_2 cell_8_1) true)))
 (let (($x24 (and (distinct cell_1_5 cell_2_4 cell_3_3 cell_4_2) true)))
 (let (($x183 (and (distinct cell_5_1 cell_6_2 cell_7_3 cell_8_4) true)))
 (let (($x4131 (and (distinct cell_2_1 cell_3_2 cell_4_3 cell_5_4 cell_6_5 cell_7_6 cell_8_7 cell_9_8) true)))
 (let (($x7787 (and (distinct cell_1_2 cell_2_3 cell_3_4 cell_4_5 cell_5_6 cell_6_7 cell_7_8 cell_8_9) true)))
 (let (($x676 (and (distinct cell_1_5 cell_2_6 cell_3_7 cell_4_8) true)))
 (and $x676 $x7787 $x4131 $x183 $x24 $x407 $x2425 $x7786))))))))))
(assert
 (= cell_5_5 2))
(check-sat)
